90 117410
5 24 8 29 82 42 72 33 2 86 67 64 21 4 1 53 35 32 39 62 55 77 73 89 43 85 7 16 10 31 20 11 60 90 80 65 68 3 70 50 18 81 46 75 66 13 36 49 15 56 83 78 54 84 14 6 28 37 9 41 17 12 26 38 57 19 47 88 45 69 25 74 63 58 40 44 51 52 76 48 87 79 61 59 30 71 23 27 22 34 
